-376.0 5.0 4.0 10.0 1.0 3.0 7.0 8.0 1.0 5.0 4.0 5.0 7.0 10.0 0.0 4.0 7.0 6.0 8.0 10.0 9.0 5.0 5.0 8.0 5.0 3.0 5.0 9.0 4.0 6.0 3.0 3.0 7.0 7.0 9.0 4.0 6.0 2.0 0.0 5.0 5.0 6.0 9.0 5.0 1.0 6.0 9.0 8.0 4.0 4.0 0.0 8.0 5.0 5.0 2.0 3.0 6.0 10.0 5.0 8.0 2.0 9.0 3.0 9.0 4.0 8.0 9.0 4.0 1.0 7.0 1.0 
5.0 -359.0 3.0 5.0 1.0 5.0 1.0 10.0 9.0 9.0 1.0 2.0 1.0 8.0 8.0 2.0 5.0 7.0 6.0 4.0 8.0 10.0 9.0 1.0 8.0 5.0 6.0 8.0 7.0 3.0 3.0 5.0 6.0 1.0 9.0 1.0 8.0 7.0 4.0 7.0 8.0 2.0 5.0 6.0 3.0 9.0 7.0 5.0 3.0 4.0 3.0 6.0 10.0 6.0 10.0 3.0 7.0 1.0 1.0 9.0 10.0 2.0 2.0 5.0 1.0 9.0 1.0 6.0 6.0 1.0 0.0 
4.0 3.0 -318.0 10.0 7.0 3.0 0.0 4.0 0.0 5.0 5.0 8.0 5.0 4.0 5.0 5.0 5.0 1.0 9.0 4.0 3.0 4.0 3.0 7.0 5.0 4.0 1.0 2.0 7.0 0.0 4.0 9.0 7.0 10.0 7.0 5.0 1.0 3.0 8.0 9.0 3.0 4.0 5.0 1.0 1.0 6.0 10.0 5.0 2.0 10.0 4.0 1.0 0.0 8.0 4.0 7.0 8.0 7.0 4.0 2.0 6.0 3.0 7.0 5.0 4.0 4.0 0.0 4.0 1.0 5.0 1.0 
10.0 5.0 10.0 -317.0 8.0 3.0 5.0 8.0 10.0 8.0 3.0 0.0 2.0 1.0 4.0 0.0 2.0 5.0 9.0 1.0 0.0 6.0 4.0 5.0 0.0 2.0 3.0 4.0 9.0 1.0 0.0 3.0 7.0 9.0 3.0 2.0 2.0 9.0 9.0 10.0 9.0 0.0 2.0 5.0 9.0 3.0 1.0 3.0 7.0 0.0 1.0 0.0 5.0 10.0 1.0 9.0 9.0 1.0 7.0 8.0 0.0 6.0 6.0 0.0 6.0 6.0 3.0 1.0 8.0 8.0 1.0 
1.0 1.0 7.0 8.0 -343.0 0.0 0.0 1.0 8.0 8.0 6.0 2.0 0.0 9.0 7.0 3.0 9.0 6.0 0.0 3.0 10.0 0.0 6.0 3.0 8.0 9.0 0.0 3.0 7.0 9.0 9.0 9.0 3.0 5.0 2.0 0.0 8.0 8.0 0.0 2.0 7.0 10.0 2.0 4.0 5.0 2.0 10.0 0.0 7.0 8.0 4.0 2.0 7.0 6.0 5.0 4.0 4.0 6.0 6.0 0.0 7.0 8.0 6.0 1.0 4.0 10.0 9.0 7.0 1.0 5.0 6.0 
3.0 5.0 3.0 3.0 0.0 -326.0 3.0 1.0 5.0 7.0 5.0 10.0 1.0 7.0 3.0 2.0 4.0 6.0 2.0 1.0 5.0 4.0 0.0 6.0 9.0 9.0 10.0 0.0 8.0 5.0 6.0 0.0 6.0 1.0 8.0 9.0 4.0 6.0 4.0 6.0 2.0 0.0 8.0 0.0 1.0 3.0 5.0 5.0 0.0 5.0 2.0 10.0 10.0 5.0 10.0 3.0 6.0 9.0 7.0 8.0 4.0 7.0 1.0 7.0 3.0 10.0 0.0 9.0 2.0 2.0 5.0 
7.0 1.0 0.0 5.0 0.0 3.0 -370.0 8.0 3.0 3.0 9.0 9.0 10.0 2.0 9.0 9.0 10.0 8.0 0.0 10.0 0.0 0.0 2.0 1.0 5.0 7.0 5.0 8.0 0.0 7.0 6.0 10.0 0.0 8.0 7.0 1.0 9.0 9.0 8.0 9.0 2.0 0.0 6.0 9.0 9.0 10.0 8.0 7.0 3.0 4.0 4.0 7.0 0.0 0.0 4.0 4.0 4.0 0.0 9.0 10.0 6.0 8.0 8.0 10.0 0.0 7.0 6.0 4.0 4.0 5.0 4.0 
8.0 10.0 4.0 8.0 1.0 1.0 8.0 -356.0 6.0 4.0 0.0 6.0 2.0 0.0 10.0 4.0 6.0 6.0 7.0 6.0 2.0 10.0 0.0 3.0 7.0 0.0 9.0 8.0 7.0 7.0 9.0 4.0 10.0 0.0 5.0 4.0 1.0 8.0 2.0 7.0 5.0 6.0 1.0 4.0 8.0 7.0 7.0 2.0 9.0 1.0 0.0 8.0 8.0 7.0 4.0 9.0 5.0 7.0 10.0 1.0 0.0 9.0 1.0 8.0 8.0 4.0 10.0 3.0 1.0 3.0 0.0 
1.0 9.0 0.0 10.0 8.0 5.0 3.0 6.0 -328.0 7.0 4.0 3.0 7.0 3.0 6.0 7.0 7.0 5.0 7.0 3.0 5.0 7.0 4.0 2.0 9.0 7.0 8.0 0.0 7.0 0.0 1.0 3.0 9.0 6.0 7.0 8.0 3.0 2.0 9.0 0.0 5.0 8.0 3.0 1.0 0.0 4.0 0.0 6.0 10.0 2.0 3.0 5.0 6.0 1.0 5.0 10.0 6.0 4.0 1.0 6.0 1.0 4.0 1.0 8.0 8.0 4.0 4.0 6.0 2.0 6.0 0.0 
5.0 9.0 5.0 8.0 8.0 7.0 3.0 4.0 7.0 -284.0 1.0 7.0 5.0 4.0 3.0 0.0 3.0 7.0 1.0 6.0 9.0 0.0 1.0 6.0 3.0 2.0 5.0 4.0 10.0 0.0 4.0 0.0 4.0 7.0 4.0 2.0 1.0 1.0 0.0 0.0 2.0 4.0 7.0 5.0 0.0 9.0 8.0 3.0 6.0 0.0 4.0 3.0 7.0 5.0 2.0 0.0 5.0 8.0 4.0 5.0 4.0 5.0 0.0 7.0 7.0 4.0 3.0 1.0 2.0 5.0 3.0 
4.0 1.0 5.0 3.0 6.0 5.0 9.0 0.0 4.0 1.0 -329.0 8.0 9.0 4.0 8.0 5.0 1.0 4.0 8.0 2.0 2.0 4.0 5.0 7.0 7.0 1.0 8.0 8.0 9.0 8.0 3.0 3.0 0.0 3.0 1.0 5.0 2.0 3.0 2.0 8.0 8.0 4.0 1.0 8.0 2.0 6.0 3.0 8.0 2.0 8.0 5.0 4.0 7.0 0.0 5.0 3.0 4.0 10.0 1.0 3.0 6.0 7.0 7.0 2.0 1.0 10.0 1.0 10.0 10.0 4.0 3.0 
5.0 2.0 8.0 0.0 2.0 10.0 9.0 6.0 3.0 7.0 8.0 -327.0 0.0 1.0 2.0 4.0 7.0 9.0 4.0 5.0 3.0 4.0 6.0 1.0 0.0 6.0 6.0 2.0 8.0 5.0 2.0 8.0 4.0 2.0 3.0 10.0 6.0 7.0 4.0 7.0 0.0 6.0 1.0 1.0 10.0 5.0 9.0 4.0 5.0 1.0 6.0 4.0 7.0 0.0 1.0 3.0 0.0 3.0 7.0 10.0 2.0 8.0 1.0 3.0 6.0 9.0 10.0 7.0 3.0 4.0 5.0 
7.0 1.0 5.0 2.0 0.0 1.0 10.0 2.0 7.0 5.0 9.0 0.0 -338.0 7.0 7.0 3.0 4.0 7.0 9.0 3.0 0.0 6.0 10.0 8.0 5.0 2.0 9.0 10.0 0.0 4.0 3.0 10.0 6.0 1.0 10.0 6.0 10.0 10.0 5.0 7.0 3.0 10.0 4.0 1.0 1.0 6.0 2.0 9.0 2.0 4.0 5.0 7.0 10.0 5.0 0.0 1.0 4.0 6.0 5.0 8.0 2.0 8.0 0.0 0.0 3.0 2.0 0.0 9.0 0.0 5.0 5.0 
10.0 8.0 4.0 1.0 9.0 7.0 2.0 0.0 3.0 4.0 4.0 1.0 7.0 -331.0 7.0 6.0 3.0 1.0 8.0 2.0 0.0 2.0 7.0 0.0 8.0 4.0 7.0 7.0 5.0 3.0 0.0 6.0 7.0 0.0 7.0 6.0 0.0 8.0 1.0 7.0 9.0 5.0 3.0 1.0 5.0 6.0 5.0 8.0 9.0 2.0 4.0 2.0 6.0 1.0 8.0 0.0 4.0 10.0 10.0 5.0 4.0 6.0 3.0 10.0 7.0 5.0 3.0 2.0 1.0 10.0 5.0 
0.0 8.0 5.0 4.0 7.0 3.0 9.0 10.0 6.0 3.0 8.0 2.0 7.0 7.0 -326.0 4.0 4.0 1.0 3.0 6.0 0.0 1.0 9.0 0.0 4.0 3.0 5.0 9.0 4.0 6.0 7.0 10.0 6.0 7.0 3.0 1.0 1.0 4.0 3.0 0.0 6.0 9.0 7.0 6.0 1.0 0.0 6.0 10.0 1.0 5.0 2.0 7.0 6.0 8.0 9.0 1.0 8.0 5.0 2.0 0.0 0.0 0.0 6.0 0.0 6.0 1.0 8.0 8.0 7.0 10.0 1.0 
4.0 2.0 5.0 0.0 3.0 2.0 9.0 4.0 7.0 0.0 5.0 4.0 3.0 6.0 4.0 -353.0 9.0 3.0 6.0 1.0 0.0 4.0 7.0 7.0 9.0 10.0 3.0 9.0 5.0 8.0 8.0 8.0 10.0 7.0 1.0 8.0 5.0 6.0 3.0 3.0 1.0 0.0 8.0 1.0 1.0 0.0 2.0 10.0 6.0 7.0 7.0 8.0 9.0 8.0 1.0 7.0 3.0 2.0 1.0 4.0 7.0 8.0 6.0 10.0 3.0 10.0 3.0 1.0 5.0 6.0 10.0 
7.0 5.0 5.0 2.0 9.0 4.0 10.0 6.0 7.0 3.0 1.0 7.0 4.0 3.0 4.0 9.0 -370.0 6.0 5.0 0.0 9.0 6.0 3.0 0.0 5.0 6.0 7.0 10.0 1.0 8.0 8.0 9.0 6.0 4.0 3.0 8.0 6.0 4.0 3.0 7.0 10.0 5.0 0.0 2.0 9.0 1.0 2.0 8.0 7.0 7.0 0.0 3.0 10.0 5.0 6.0 2.0 1.0 0.0 1.0 10.0 1.0 6.0 6.0 2.0 8.0 4.0 9.0 8.0 8.0 10.0 9.0 
6.0 7.0 1.0 5.0 6.0 6.0 8.0 6.0 5.0 7.0 4.0 9.0 7.0 1.0 1.0 3.0 6.0 -371.0 8.0 2.0 7.0 10.0 7.0 3.0 1.0 1.0 2.0 7.0 5.0 9.0 0.0 3.0 4.0 9.0 6.0 7.0 2.0 4.0 3.0 6.0 7.0 2.0 5.0 4.0 6.0 5.0 3.0 10.0 0.0 4.0 5.0 7.0 3.0 10.0 9.0 2.0 10.0 8.0 6.0 4.0 5.0 3.0 6.0 9.0 5.0 9.0 4.0 7.0 10.0 5.0 4.0 
8.0 6.0 9.0 9.0 0.0 2.0 0.0 7.0 7.0 1.0 8.0 4.0 9.0 8.0 3.0 6.0 5.0 8.0 -391.0 0.0 10.0 0.0 4.0 5.0 6.0 1.0 7.0 0.0 9.0 3.0 3.0 2.0 7.0 6.0 10.0 0.0 1.0 8.0 6.0 5.0 7.0 2.0 6.0 7.0 3.0 10.0 6.0 9.0 2.0 4.0 8.0 10.0 8.0 10.0 10.0 7.0 6.0 0.0 6.0 8.0 2.0 8.0 6.0 4.0 7.0 8.0 5.0 7.0 7.0 10.0 5.0 
10.0 4.0 4.0 1.0 3.0 1.0 10.0 6.0 3.0 6.0 2.0 5.0 3.0 2.0 6.0 1.0 0.0 2.0 0.0 -303.0 4.0 8.0 3.0 0.0 10.0 6.0 8.0 8.0 6.0 0.0 1.0 0.0 5.0 6.0 7.0 0.0 7.0 10.0 8.0 2.0 10.0 4.0 2.0 0.0 0.0 4.0 8.0 7.0 3.0 3.0 4.0 6.0 7.0 0.0 7.0 8.0 4.0 5.0 1.0 6.0 0.0 9.0 2.0 5.0 4.0 1.0 8.0 4.0 2.0 9.0 2.0 
9.0 8.0 3.0 0.0 10.0 5.0 0.0 2.0 5.0 9.0 2.0 3.0 0.0 0.0 0.0 0.0 9.0 7.0 10.0 4.0 -299.0 1.0 7.0 2.0 5.0 8.0 5.0 4.0 9.0 6.0 0.0 1.0 2.0 6.0 2.0 3.0 1.0 0.0 1.0 10.0 0.0 1.0 4.0 0.0 0.0 7.0 1.0 9.0 4.0 10.0 1.0 10.0 3.0 4.0 3.0 4.0 2.0 6.0 9.0 1.0 9.0 3.0 4.0 7.0 3.0 8.0 9.0 0.0 1.0 9.0 8.0 
5.0 10.0 4.0 6.0 0.0 4.0 0.0 10.0 7.0 0.0 4.0 4.0 6.0 2.0 1.0 4.0 6.0 10.0 0.0 8.0 1.0 -365.0 7.0 4.0 2.0 6.0 6.0 6.0 10.0 4.0 9.0 2.0 8.0 7.0 0.0 3.0 2.0 5.0 8.0 6.0 1.0 10.0 9.0 1.0 10.0 9.0 6.0 2.0 1.0 4.0 7.0 1.0 0.0 10.0 9.0 8.0 7.0 5.0 9.0 0.0 1.0 4.0 10.0 9.0 7.0 10.0 9.0 2.0 10.0 7.0 0.0 
5.0 9.0 3.0 4.0 6.0 0.0 2.0 0.0 4.0 1.0 5.0 6.0 10.0 7.0 9.0 7.0 3.0 7.0 4.0 3.0 7.0 7.0 -359.0 3.0 7.0 5.0 7.0 7.0 2.0 6.0 7.0 0.0 9.0 7.0 4.0 0.0 0.0 4.0 8.0 10.0 10.0 9.0 6.0 1.0 2.0 5.0 9.0 0.0 7.0 6.0 9.0 3.0 4.0 9.0 5.0 5.0 9.0 8.0 3.0 2.0 3.0 0.0 8.0 2.0 8.0 1.0 0.0 9.0 4.0 7.0 10.0 
8.0 1.0 7.0 5.0 3.0 6.0 1.0 3.0 2.0 6.0 7.0 1.0 8.0 0.0 0.0 7.0 0.0 3.0 5.0 0.0 2.0 4.0 3.0 -359.0 4.0 3.0 1.0 7.0 6.0 8.0 9.0 3.0 10.0 4.0 1.0 3.0 7.0 5.0 1.0 10.0 7.0 0.0 4.0 10.0 10.0 1.0 7.0 6.0 8.0 7.0 10.0 8.0 10.0 4.0 5.0 9.0 5.0 8.0 7.0 0.0 9.0 3.0 7.0 10.0 0.0 2.0 6.0 9.0 10.0 9.0 4.0 
5.0 8.0 5.0 0.0 8.0 9.0 5.0 7.0 9.0 3.0 7.0 0.0 5.0 8.0 4.0 9.0 5.0 1.0 6.0 10.0 5.0 2.0 7.0 4.0 -404.0 9.0 10.0 6.0 9.0 6.0 8.0 8.0 9.0 0.0 9.0 4.0 4.0 10.0 4.0 1.0 9.0 9.0 7.0 5.0 1.0 0.0 7.0 8.0 0.0 9.0 8.0 8.0 4.0 7.0 0.0 5.0 9.0 9.0 10.0 2.0 9.0 2.0 10.0 9.0 6.0 8.0 1.0 5.0 2.0 5.0 1.0 
3.0 5.0 4.0 2.0 9.0 9.0 7.0 0.0 7.0 2.0 1.0 6.0 2.0 4.0 3.0 10.0 6.0 1.0 1.0 6.0 8.0 6.0 5.0 3.0 9.0 -356.0 7.0 4.0 2.0 2.0 6.0 5.0 6.0 6.0 4.0 0.0 9.0 3.0 0.0 2.0 2.0 3.0 5.0 4.0 0.0 10.0 10.0 6.0 2.0 4.0 8.0 8.0 4.0 8.0 9.0 7.0 7.0 7.0 3.0 10.0 6.0 3.0 1.0 9.0 10.0 1.0 6.0 7.0 7.0 10.0 4.0 
5.0 6.0 1.0 3.0 0.0 10.0 5.0 9.0 8.0 5.0 8.0 6.0 9.0 7.0 5.0 3.0 7.0 2.0 7.0 8.0 5.0 6.0 7.0 1.0 10.0 7.0 -366.0 6.0 8.0 3.0 0.0 6.0 7.0 2.0 10.0 1.0 0.0 3.0 0.0 3.0 8.0 8.0 5.0 8.0 7.0 3.0 10.0 2.0 3.0 6.0 10.0 4.0 7.0 3.0 6.0 2.0 9.0 1.0 1.0 5.0 10.0 3.0 1.0 1.0 3.0 9.0 10.0 6.0 0.0 6.0 10.0 
9.0 8.0 2.0 4.0 3.0 0.0 8.0 8.0 0.0 4.0 8.0 2.0 10.0 7.0 9.0 9.0 10.0 7.0 0.0 8.0 4.0 6.0 7.0 7.0 6.0 4.0 6.0 -346.0 6.0 2.0 7.0 1.0 7.0 8.0 10.0 7.0 10.0 0.0 0.0 10.0 2.0 1.0 0.0 8.0 9.0 6.0 10.0 9.0 1.0 4.0 6.0 9.0 2.0 0.0 0.0 0.0 10.0 3.0 1.0 3.0 8.0 1.0 2.0 3.0 1.0 3.0 5.0 0.0 6.0 9.0 0.0 
4.0 7.0 7.0 9.0 7.0 8.0 0.0 7.0 7.0 10.0 9.0 8.0 0.0 5.0 4.0 5.0 1.0 5.0 9.0 6.0 9.0 10.0 2.0 6.0 9.0 2.0 8.0 6.0 -386.0 8.0 3.0 5.0 0.0 4.0 4.0 2.0 2.0 7.0 9.0 6.0 9.0 9.0 10.0 4.0 4.0 10.0 2.0 3.0 4.0 9.0 10.0 7.0 10.0 9.0 5.0 2.0 5.0 2.0 10.0 0.0 2.0 7.0 1.0 1.0 7.0 7.0 2.0 9.0 0.0 1.0 5.0 
6.0 3.0 0.0 1.0 9.0 5.0 7.0 7.0 0.0 0.0 8.0 5.0 4.0 3.0 6.0 8.0 8.0 9.0 3.0 0.0 6.0 4.0 6.0 8.0 6.0 2.0 3.0 2.0 8.0 -309.0 9.0 6.0 1.0 9.0 8.0 0.0 1.0 0.0 1.0 6.0 6.0 1.0 2.0 0.0 1.0 0.0 1.0 3.0 1.0 6.0 2.0 5.0 4.0 9.0 9.0 0.0 4.0 7.0 10.0 1.0 4.0 2.0 7.0 7.0 9.0 2.0 3.0 7.0 1.0 8.0 9.0 
3.0 3.0 4.0 0.0 9.0 6.0 6.0 9.0 1.0 4.0 3.0 2.0 3.0 0.0 7.0 8.0 8.0 0.0 3.0 1.0 0.0 9.0 7.0 9.0 8.0 6.0 0.0 7.0 3.0 9.0 -371.0 8.0 9.0 8.0 7.0 7.0 8.0 5.0 5.0 9.0 1.0 6.0 9.0 9.0 1.0 5.0 5.0 0.0 10.0 0.0 10.0 9.0 5.0 5.0 3.0 5.0 8.0 9.0 8.0 1.0 0.0 6.0 3.0 4.0 10.0 9.0 6.0 2.0 3.0 9.0 6.0 
3.0 5.0 9.0 3.0 9.0 0.0 10.0 4.0 3.0 0.0 3.0 8.0 10.0 6.0 10.0 8.0 9.0 3.0 2.0 0.0 1.0 2.0 0.0 3.0 8.0 5.0 6.0 1.0 5.0 6.0 8.0 -330.0 4.0 4.0 4.0 1.0 7.0 7.0 3.0 8.0 8.0 8.0 7.0 1.0 7.0 9.0 0.0 3.0 5.0 3.0 8.0 2.0 6.0 4.0 8.0 6.0 4.0 6.0 0.0 0.0 8.0 0.0 0.0 1.0 5.0 1.0 8.0 4.0 9.0 10.0 1.0 
7.0 6.0 7.0 7.0 3.0 6.0 0.0 10.0 9.0 4.0 0.0 4.0 6.0 7.0 6.0 10.0 6.0 4.0 7.0 5.0 2.0 8.0 9.0 10.0 9.0 6.0 7.0 7.0 0.0 1.0 9.0 4.0 -422.0 5.0 5.0 10.0 6.0 10.0 9.0 6.0 2.0 6.0 7.0 7.0 9.0 3.0 5.0 8.0 8.0 4.0 3.0 10.0 9.0 8.0 10.0 8.0 7.0 5.0 10.0 5.0 7.0 6.0 1.0 10.0 6.0 0.0 0.0 3.0 1.0 9.0 8.0 
7.0 1.0 10.0 9.0 5.0 1.0 8.0 0.0 6.0 7.0 3.0 2.0 1.0 0.0 7.0 7.0 4.0 9.0 6.0 6.0 6.0 7.0 7.0 4.0 0.0 6.0 2.0 8.0 4.0 9.0 8.0 4.0 5.0 -356.0 2.0 3.0 3.0 10.0 3.0 9.0 9.0 6.0 0.0 6.0 9.0 3.0 10.0 2.0 6.0 6.0 0.0 1.0 9.0 7.0 2.0 7.0 4.0 9.0 4.0 2.0 2.0 4.0 6.0 5.0 8.0 10.0 0.0 9.0 2.0 1.0 8.0 
9.0 9.0 7.0 3.0 2.0 8.0 7.0 5.0 7.0 4.0 1.0 3.0 10.0 7.0 3.0 1.0 3.0 6.0 10.0 7.0 2.0 0.0 4.0 1.0 9.0 4.0 10.0 10.0 4.0 8.0 7.0 4.0 5.0 2.0 -338.0 2.0 5.0 6.0 6.0 7.0 4.0 5.0 3.0 0.0 2.0 4.0 8.0 6.0 3.0 2.0 0.0 5.0 7.0 8.0 1.0 9.0 8.0 6.0 9.0 4.0 0.0 2.0 2.0 7.0 10.0 6.0 4.0 1.0 0.0 4.0 0.0 
4.0 1.0 5.0 2.0 0.0 9.0 1.0 4.0 8.0 2.0 5.0 10.0 6.0 6.0 1.0 8.0 8.0 7.0 0.0 0.0 3.0 3.0 0.0 3.0 4.0 0.0 1.0 7.0 2.0 0.0 7.0 1.0 10.0 3.0 2.0 -307.0 3.0 1.0 8.0 9.0 3.0 1.0 4.0 2.0 0.0 1.0 6.0 2.0 6.0 7.0 4.0 10.0 0.0 9.0 8.0 10.0 4.0 10.0 4.0 8.0 4.0 8.0 5.0 6.0 2.0 2.0 10.0 3.0 4.0 10.0 0.0 
6.0 8.0 1.0 2.0 8.0 4.0 9.0 1.0 3.0 1.0 2.0 6.0 10.0 0.0 1.0 5.0 6.0 2.0 1.0 7.0 1.0 2.0 0.0 7.0 4.0 9.0 0.0 10.0 2.0 1.0 8.0 7.0 6.0 3.0 5.0 3.0 -322.0 10.0 6.0 8.0 5.0 8.0 8.0 6.0 9.0 4.0 10.0 3.0 10.0 8.0 4.0 5.0 0.0 2.0 1.0 6.0 9.0 4.0 8.0 1.0 4.0 0.0 9.0 10.0 0.0 0.0 0.0 2.0 3.0 4.0 4.0 
2.0 7.0 3.0 9.0 8.0 6.0 9.0 8.0 2.0 1.0 3.0 7.0 10.0 8.0 4.0 6.0 4.0 4.0 8.0 10.0 0.0 5.0 4.0 5.0 10.0 3.0 3.0 0.0 7.0 0.0 5.0 7.0 10.0 10.0 6.0 1.0 10.0 -373.0 5.0 2.0 0.0 5.0 8.0 6.0 0.0 3.0 9.0 1.0 3.0 8.0 9.0 3.0 6.0 6.0 8.0 9.0 1.0 2.0 8.0 4.0 6.0 1.0 5.0 9.0 7.0 9.0 7.0 0.0 6.0 4.0 8.0 
0.0 4.0 8.0 9.0 0.0 4.0 8.0 2.0 9.0 0.0 2.0 4.0 5.0 1.0 3.0 3.0 3.0 3.0 6.0 8.0 1.0 8.0 8.0 1.0 4.0 0.0 0.0 0.0 9.0 1.0 5.0 3.0 9.0 3.0 6.0 8.0 6.0 5.0 -344.0 4.0 4.0 8.0 7.0 10.0 4.0 7.0 2.0 6.0 2.0 0.0 5.0 0.0 9.0 8.0 8.0 6.0 1.0 10.0 3.0 10.0 3.0 8.0 7.0 6.0 7.0 9.0 0.0 9.0 8.0 6.0 8.0 
5.0 7.0 9.0 10.0 2.0 6.0 9.0 7.0 0.0 0.0 8.0 7.0 7.0 7.0 0.0 3.0 7.0 6.0 5.0 2.0 10.0 6.0 10.0 10.0 1.0 2.0 3.0 10.0 6.0 6.0 9.0 8.0 6.0 9.0 7.0 9.0 8.0 2.0 4.0 -387.0 6.0 6.0 4.0 10.0 0.0 5.0 2.0 6.0 1.0 9.0 2.0 2.0 5.0 5.0 3.0 6.0 6.0 7.0 10.0 8.0 6.0 0.0 3.0 10.0 3.0 6.0 9.0 6.0 2.0 5.0 1.0 
5.0 8.0 3.0 9.0 7.0 2.0 2.0 5.0 5.0 2.0 8.0 0.0 3.0 9.0 6.0 1.0 10.0 7.0 7.0 10.0 0.0 1.0 10.0 7.0 9.0 2.0 8.0 2.0 9.0 6.0 1.0 8.0 2.0 9.0 4.0 3.0 5.0 0.0 4.0 6.0 -325.0 1.0 3.0 3.0 6.0 1.0 9.0 3.0 1.0 4.0 2.0 10.0 2.0 10.0 8.0 2.0 0.0 5.0 6.0 1.0 3.0 9.0 2.0 5.0 4.0 7.0 4.0 3.0 0.0 4.0 2.0 
6.0 2.0 4.0 0.0 10.0 0.0 0.0 6.0 8.0 4.0 4.0 6.0 10.0 5.0 9.0 0.0 5.0 2.0 2.0 4.0 1.0 10.0 9.0 0.0 9.0 3.0 8.0 1.0 9.0 1.0 6.0 8.0 6.0 6.0 5.0 1.0 8.0 5.0 8.0 6.0 1.0 -317.0 9.0 4.0 7.0 1.0 9.0 8.0 0.0 2.0 7.0 2.0 0.0 4.0 0.0 3.0 6.0 2.0 7.0 0.0 1.0 8.0 10.0 5.0 8.0 1.0 0.0 3.0 6.0 6.0 0.0 
9.0 5.0 5.0 2.0 2.0 8.0 6.0 1.0 3.0 7.0 1.0 1.0 4.0 3.0 7.0 8.0 0.0 5.0 6.0 2.0 4.0 9.0 6.0 4.0 7.0 5.0 5.0 0.0 10.0 2.0 9.0 7.0 7.0 0.0 3.0 4.0 8.0 8.0 7.0 4.0 3.0 9.0 -330.0 5.0 8.0 1.0 0.0 4.0 4.0 8.0 5.0 0.0 10.0 3.0 6.0 1.0 4.0 10.0 1.0 0.0 0.0 6.0 7.0 3.0 6.0 9.0 2.0 1.0 10.0 1.0 9.0 
5.0 6.0 1.0 5.0 4.0 0.0 9.0 4.0 1.0 5.0 8.0 1.0 1.0 1.0 6.0 1.0 2.0 4.0 7.0 0.0 0.0 1.0 1.0 10.0 5.0 4.0 8.0 8.0 4.0 0.0 9.0 1.0 7.0 6.0 0.0 2.0 6.0 6.0 10.0 10.0 3.0 4.0 5.0 -314.0 1.0 10.0 10.0 10.0 8.0 1.0 6.0 5.0 0.0 0.0 9.0 9.0 4.0 3.0 1.0 5.0 10.0 1.0 2.0 3.0 8.0 9.0 5.0 0.0 0.0 3.0 10.0 
1.0 3.0 1.0 9.0 5.0 1.0 9.0 8.0 0.0 0.0 2.0 10.0 1.0 5.0 1.0 1.0 9.0 6.0 3.0 0.0 0.0 10.0 2.0 10.0 1.0 0.0 7.0 9.0 4.0 1.0 1.0 7.0 9.0 9.0 2.0 0.0 9.0 0.0 4.0 0.0 6.0 7.0 8.0 1.0 -325.0 0.0 0.0 4.0 4.0 9.0 6.0 10.0 10.0 0.0 10.0 4.0 4.0 2.0 5.0 8.0 2.0 9.0 8.0 1.0 8.0 9.0 3.0 7.0 1.0 10.0 9.0 
6.0 9.0 6.0 3.0 2.0 3.0 10.0 7.0 4.0 9.0 6.0 5.0 6.0 6.0 0.0 0.0 1.0 5.0 10.0 4.0 7.0 9.0 5.0 1.0 0.0 10.0 3.0 6.0 10.0 0.0 5.0 9.0 3.0 3.0 4.0 1.0 4.0 3.0 7.0 5.0 1.0 1.0 1.0 10.0 0.0 -303.0 2.0 10.0 9.0 0.0 1.0 1.0 4.0 3.0 10.0 7.0 0.0 1.0 0.0 8.0 0.0 4.0 7.0 4.0 4.0 0.0 9.0 2.0 2.0 2.0 3.0 
9.0 7.0 10.0 1.0 10.0 5.0 8.0 7.0 0.0 8.0 3.0 9.0 2.0 5.0 6.0 2.0 2.0 3.0 6.0 8.0 1.0 6.0 9.0 7.0 7.0 10.0 10.0 10.0 2.0 1.0 5.0 0.0 5.0 10.0 8.0 6.0 10.0 9.0 2.0 2.0 9.0 9.0 0.0 10.0 0.0 2.0 -398.0 10.0 9.0 9.0 5.0 8.0 5.0 4.0 9.0 4.0 1.0 2.0 4.0 3.0 5.0 10.0 5.0 8.0 9.0 4.0 6.0 0.0 10.0 1.0 6.0 
8.0 5.0 5.0 3.0 0.0 5.0 7.0 2.0 6.0 3.0 8.0 4.0 9.0 8.0 10.0 10.0 8.0 10.0 9.0 7.0 9.0 2.0 0.0 6.0 8.0 6.0 2.0 9.0 3.0 3.0 0.0 3.0 8.0 2.0 6.0 2.0 3.0 1.0 6.0 6.0 3.0 8.0 4.0 10.0 4.0 10.0 10.0 -382.0 8.0 2.0 2.0 8.0 8.0 7.0 4.0 2.0 0.0 9.0 5.0 6.0 1.0 0.0 7.0 6.0 8.0 6.0 9.0 3.0 1.0 9.0 10.0 
4.0 3.0 2.0 7.0 7.0 0.0 3.0 9.0 10.0 6.0 2.0 5.0 2.0 9.0 1.0 6.0 7.0 0.0 2.0 3.0 4.0 1.0 7.0 8.0 0.0 2.0 3.0 1.0 4.0 1.0 10.0 5.0 8.0 6.0 3.0 6.0 10.0 3.0 2.0 1.0 1.0 0.0 4.0 8.0 4.0 9.0 9.0 8.0 -317.0 1.0 7.0 2.0 0.0 10.0 0.0 9.0 8.0 4.0 3.0 9.0 9.0 8.0 1.0 1.0 0.0 4.0 5.0 1.0 0.0 10.0 9.0 
4.0 4.0 10.0 0.0 8.0 5.0 4.0 1.0 2.0 0.0 8.0 1.0 4.0 2.0 5.0 7.0 7.0 4.0 4.0 3.0 10.0 4.0 6.0 7.0 9.0 4.0 6.0 4.0 9.0 6.0 0.0 3.0 4.0 6.0 2.0 7.0 8.0 8.0 0.0 9.0 4.0 2.0 8.0 1.0 9.0 0.0 9.0 2.0 1.0 -333.0 9.0 1.0 4.0 6.0 3.0 2.0 10.0 4.0 0.0 8.0 2.0 9.0 0.0 0.0 10.0 5.0 4.0 9.0 10.0 5.0 1.0 
0.0 3.0 4.0 1.0 4.0 2.0 4.0 0.0 3.0 4.0 5.0 6.0 5.0 4.0 2.0 7.0 0.0 5.0 8.0 4.0 1.0 7.0 9.0 10.0 8.0 8.0 10.0 6.0 10.0 2.0 10.0 8.0 3.0 0.0 0.0 4.0 4.0 9.0 5.0 2.0 2.0 7.0 5.0 6.0 6.0 1.0 5.0 2.0 7.0 9.0 -339.0 9.0 2.0 4.0 7.0 9.0 8.0 2.0 2.0 1.0 8.0 10.0 0.0 10.0 2.0 2.0 1.0 10.0 7.0 4.0 4.0 
8.0 6.0 1.0 0.0 2.0 10.0 7.0 8.0 5.0 3.0 4.0 4.0 7.0 2.0 7.0 8.0 3.0 7.0 10.0 6.0 10.0 1.0 3.0 8.0 8.0 8.0 4.0 9.0 7.0 5.0 9.0 2.0 10.0 1.0 5.0 10.0 5.0 3.0 0.0 2.0 10.0 2.0 0.0 5.0 10.0 1.0 8.0 8.0 2.0 1.0 9.0 -378.0 4.0 5.0 8.0 9.0 8.0 2.0 4.0 8.0 10.0 6.0 1.0 0.0 10.0 4.0 1.0 9.0 6.0 4.0 5.0 
5.0 10.0 0.0 5.0 7.0 10.0 0.0 8.0 6.0 7.0 7.0 7.0 10.0 6.0 6.0 9.0 10.0 3.0 8.0 7.0 3.0 0.0 4.0 10.0 4.0 4.0 7.0 2.0 10.0 4.0 5.0 6.0 9.0 9.0 7.0 0.0 0.0 6.0 9.0 5.0 2.0 0.0 10.0 0.0 10.0 4.0 5.0 8.0 0.0 4.0 2.0 4.0 -365.0 5.0 1.0 9.0 5.0 0.0 9.0 8.0 0.0 5.0 4.0 10.0 2.0 6.0 2.0 0.0 5.0 5.0 5.0 
5.0 6.0 8.0 10.0 6.0 5.0 0.0 7.0 1.0 5.0 0.0 0.0 5.0 1.0 8.0 8.0 5.0 10.0 10.0 0.0 4.0 10.0 9.0 4.0 7.0 8.0 3.0 0.0 9.0 9.0 5.0 4.0 8.0 7.0 8.0 9.0 2.0 6.0 8.0 5.0 10.0 4.0 3.0 0.0 0.0 3.0 4.0 7.0 10.0 6.0 4.0 5.0 5.0 -406.0 9.0 4.0 4.0 7.0 9.0 6.0 6.0 7.0 4.0 7.0 6.0 9.0 10.0 3.0 10.0 10.0 9.0 
2.0 10.0 4.0 1.0 5.0 10.0 4.0 4.0 5.0 2.0 5.0 1.0 0.0 8.0 9.0 1.0 6.0 9.0 10.0 7.0 3.0 9.0 5.0 5.0 0.0 9.0 6.0 0.0 5.0 9.0 3.0 8.0 10.0 2.0 1.0 8.0 1.0 8.0 8.0 3.0 8.0 0.0 6.0 9.0 10.0 10.0 9.0 4.0 0.0 3.0 7.0 8.0 1.0 9.0 -360.0 0.0 2.0 0.0 2.0 7.0 7.0 7.0 10.0 9.0 5.0 3.0 3.0 6.0 4.0 1.0 4.0 
3.0 3.0 7.0 9.0 4.0 3.0 4.0 9.0 10.0 0.0 3.0 3.0 1.0 0.0 1.0 7.0 2.0 2.0 7.0 8.0 4.0 8.0 5.0 9.0 5.0 7.0 2.0 0.0 2.0 0.0 5.0 6.0 8.0 7.0 9.0 10.0 6.0 9.0 6.0 6.0 2.0 3.0 1.0 9.0 4.0 7.0 4.0 2.0 9.0 2.0 9.0 9.0 9.0 4.0 0.0 -331.0 4.0 1.0 2.0 4.0 10.0 2.0 0.0 1.0 5.0 0.0 4.0 2.0 7.0 6.0 9.0 
6.0 7.0 8.0 9.0 4.0 6.0 4.0 5.0 6.0 5.0 4.0 0.0 4.0 4.0 8.0 3.0 1.0 10.0 6.0 4.0 2.0 7.0 9.0 5.0 9.0 7.0 9.0 10.0 5.0 4.0 8.0 4.0 7.0 4.0 8.0 4.0 9.0 1.0 1.0 6.0 0.0 6.0 4.0 4.0 4.0 0.0 1.0 0.0 8.0 10.0 8.0 8.0 5.0 4.0 2.0 4.0 -362.0 7.0 8.0 5.0 7.0 1.0 8.0 5.0 5.0 1.0 4.0 0.0 4.0 10.0 6.0 
10.0 1.0 7.0 1.0 6.0 9.0 0.0 7.0 4.0 8.0 10.0 3.0 6.0 10.0 5.0 2.0 0.0 8.0 0.0 5.0 6.0 5.0 8.0 8.0 9.0 7.0 1.0 3.0 2.0 7.0 9.0 6.0 5.0 9.0 6.0 10.0 4.0 2.0 10.0 7.0 5.0 2.0 10.0 3.0 2.0 1.0 2.0 9.0 4.0 4.0 2.0 2.0 0.0 7.0 0.0 1.0 7.0 -359.0 8.0 7.0 10.0 3.0 8.0 3.0 3.0 1.0 8.0 6.0 0.0 7.0 8.0 
5.0 1.0 4.0 7.0 6.0 7.0 9.0 10.0 1.0 4.0 1.0 7.0 5.0 10.0 2.0 1.0 1.0 6.0 6.0 1.0 9.0 9.0 3.0 7.0 10.0 3.0 1.0 1.0 10.0 10.0 8.0 0.0 10.0 4.0 9.0 4.0 8.0 8.0 3.0 10.0 6.0 7.0 1.0 1.0 5.0 0.0 4.0 5.0 3.0 0.0 2.0 4.0 9.0 9.0 2.0 2.0 8.0 8.0 -349.0 4.0 5.0 10.0 3.0 3.0 5.0 6.0 1.0 9.0 2.0 0.0 4.0 
8.0 9.0 2.0 8.0 0.0 8.0 10.0 1.0 6.0 5.0 3.0 10.0 8.0 5.0 0.0 4.0 10.0 4.0 8.0 6.0 1.0 0.0 2.0 0.0 2.0 10.0 5.0 3.0 0.0 1.0 1.0 0.0 5.0 2.0 4.0 8.0 1.0 4.0 10.0 8.0 1.0 0.0 0.0 5.0 8.0 8.0 3.0 6.0 9.0 8.0 1.0 8.0 8.0 6.0 7.0 4.0 5.0 7.0 4.0 -330.0 0.0 3.0 8.0 3.0 7.0 7.0 2.0 5.0 3.0 5.0 7.0 
2.0 10.0 6.0 0.0 7.0 4.0 6.0 0.0 1.0 4.0 6.0 2.0 2.0 4.0 0.0 7.0 1.0 5.0 2.0 0.0 9.0 1.0 3.0 9.0 9.0 6.0 10.0 8.0 2.0 4.0 0.0 8.0 7.0 2.0 0.0 4.0 4.0 6.0 3.0 6.0 3.0 1.0 0.0 10.0 2.0 0.0 5.0 1.0 9.0 2.0 8.0 10.0 0.0 6.0 7.0 10.0 7.0 10.0 5.0 0.0 -315.0 6.0 3.0 8.0 5.0 5.0 0.0 7.0 7.0 4.0 4.0 
9.0 2.0 3.0 6.0 8.0 7.0 8.0 9.0 4.0 5.0 7.0 8.0 8.0 6.0 0.0 8.0 6.0 3.0 8.0 9.0 3.0 4.0 0.0 3.0 2.0 3.0 3.0 1.0 7.0 2.0 6.0 0.0 6.0 4.0 2.0 8.0 0.0 1.0 8.0 0.0 9.0 8.0 6.0 1.0 9.0 4.0 10.0 0.0 8.0 9.0 10.0 6.0 5.0 7.0 7.0 2.0 1.0 3.0 10.0 3.0 6.0 -362.0 6.0 4.0 5.0 3.0 10.0 7.0 5.0 1.0 10.0 
3.0 2.0 7.0 6.0 6.0 1.0 8.0 1.0 1.0 0.0 7.0 1.0 0.0 3.0 6.0 6.0 6.0 6.0 6.0 2.0 4.0 10.0 8.0 7.0 10.0 1.0 1.0 2.0 1.0 7.0 3.0 0.0 1.0 6.0 2.0 5.0 9.0 5.0 7.0 3.0 2.0 10.0 7.0 2.0 8.0 7.0 5.0 7.0 1.0 0.0 0.0 1.0 4.0 4.0 10.0 0.0 8.0 8.0 3.0 8.0 3.0 6.0 -312.0 2.0 10.0 1.0 4.0 2.0 3.0 9.0 7.0 
9.0 5.0 5.0 0.0 1.0 7.0 10.0 8.0 8.0 7.0 2.0 3.0 0.0 10.0 0.0 10.0 2.0 9.0 4.0 5.0 7.0 9.0 2.0 10.0 9.0 9.0 1.0 3.0 1.0 7.0 4.0 1.0 10.0 5.0 7.0 6.0 10.0 9.0 6.0 10.0 5.0 5.0 3.0 3.0 1.0 4.0 8.0 6.0 1.0 0.0 10.0 0.0 10.0 7.0 9.0 1.0 5.0 3.0 3.0 3.0 8.0 4.0 2.0 -359.0 8.0 8.0 1.0 3.0 5.0 2.0 0.0 
4.0 1.0 4.0 6.0 4.0 3.0 0.0 8.0 8.0 7.0 1.0 6.0 3.0 7.0 6.0 3.0 8.0 5.0 7.0 4.0 3.0 7.0 8.0 0.0 6.0 10.0 3.0 1.0 7.0 9.0 10.0 5.0 6.0 8.0 10.0 2.0 0.0 7.0 7.0 3.0 4.0 8.0 6.0 8.0 8.0 4.0 9.0 8.0 0.0 10.0 2.0 10.0 2.0 6.0 5.0 5.0 5.0 3.0 5.0 7.0 5.0 5.0 10.0 8.0 -379.0 2.0 3.0 9.0 4.0 6.0 5.0 
8.0 9.0 4.0 6.0 10.0 10.0 7.0 4.0 4.0 4.0 10.0 9.0 2.0 5.0 1.0 10.0 4.0 9.0 8.0 1.0 8.0 10.0 1.0 2.0 8.0 1.0 9.0 3.0 7.0 2.0 9.0 1.0 0.0 10.0 6.0 2.0 0.0 9.0 9.0 6.0 7.0 1.0 9.0 9.0 9.0 0.0 4.0 6.0 4.0 5.0 2.0 4.0 6.0 9.0 3.0 0.0 1.0 1.0 6.0 7.0 5.0 3.0 1.0 8.0 2.0 -356.0 3.0 8.0 2.0 1.0 2.0 
9.0 1.0 0.0 3.0 9.0 0.0 6.0 10.0 4.0 3.0 1.0 10.0 0.0 3.0 8.0 3.0 9.0 4.0 5.0 8.0 9.0 9.0 0.0 6.0 1.0 6.0 10.0 5.0 2.0 3.0 6.0 8.0 0.0 0.0 4.0 10.0 0.0 7.0 0.0 9.0 4.0 0.0 2.0 5.0 3.0 9.0 6.0 9.0 5.0 4.0 1.0 1.0 2.0 10.0 3.0 4.0 4.0 8.0 1.0 2.0 0.0 10.0 4.0 1.0 3.0 3.0 -316.0 7.0 4.0 8.0 2.0 
4.0 6.0 4.0 1.0 7.0 9.0 4.0 3.0 6.0 1.0 10.0 7.0 9.0 2.0 8.0 1.0 8.0 7.0 7.0 4.0 0.0 2.0 9.0 9.0 5.0 7.0 6.0 0.0 9.0 7.0 2.0 4.0 3.0 9.0 1.0 3.0 2.0 0.0 9.0 6.0 3.0 3.0 1.0 0.0 7.0 2.0 0.0 3.0 1.0 9.0 10.0 9.0 0.0 3.0 6.0 2.0 0.0 6.0 9.0 5.0 7.0 7.0 2.0 3.0 9.0 8.0 7.0 -336.0 6.0 7.0 0.0 
1.0 6.0 1.0 8.0 1.0 2.0 4.0 1.0 2.0 2.0 10.0 3.0 0.0 1.0 7.0 5.0 8.0 10.0 7.0 2.0 1.0 10.0 4.0 10.0 2.0 7.0 0.0 6.0 0.0 1.0 3.0 9.0 1.0 2.0 0.0 4.0 3.0 6.0 8.0 2.0 0.0 6.0 10.0 0.0 1.0 2.0 10.0 1.0 0.0 10.0 7.0 6.0 5.0 10.0 4.0 7.0 4.0 0.0 2.0 3.0 7.0 5.0 3.0 5.0 4.0 2.0 4.0 6.0 -295.0 4.0 7.0 
7.0 1.0 5.0 8.0 5.0 2.0 5.0 3.0 6.0 5.0 4.0 4.0 5.0 10.0 10.0 6.0 10.0 5.0 10.0 9.0 9.0 7.0 7.0 9.0 5.0 10.0 6.0 9.0 1.0 8.0 9.0 10.0 9.0 1.0 4.0 10.0 4.0 4.0 6.0 5.0 4.0 6.0 1.0 3.0 10.0 2.0 1.0 9.0 10.0 5.0 4.0 4.0 5.0 10.0 1.0 6.0 10.0 7.0 0.0 5.0 4.0 1.0 9.0 2.0 6.0 1.0 8.0 7.0 4.0 -404.0 6.0 
1.0 0.0 1.0 1.0 6.0 5.0 4.0 0.0 0.0 3.0 3.0 5.0 5.0 5.0 1.0 10.0 9.0 4.0 5.0 2.0 8.0 0.0 10.0 4.0 1.0 4.0 10.0 0.0 5.0 9.0 6.0 1.0 8.0 8.0 0.0 0.0 4.0 8.0 8.0 1.0 2.0 0.0 9.0 10.0 9.0 3.0 6.0 10.0 9.0 1.0 4.0 5.0 5.0 9.0 4.0 9.0 6.0 8.0 4.0 7.0 4.0 10.0 7.0 0.0 5.0 2.0 2.0 0.0 7.0 6.0 -328.0 

